pu_isolated #Nuwan Dewapriya (2020-08-08)
  System = pu_ab_inito_md
  PREC   = Normal           # recommend to use PREC=Normal or PREC=Accurate
  ENCUT = 1100              # Kinetic Energy Cutoff in eV
  LREAL = Auto              # LREAL determines whether the projection operators are evaluated in real-space or in reciprocal space.
  NSW      = 10000           # NSW sets the maximum number of ionic steps;
  IBRION   = 0              # determines how the ions are updated and moved;  -1: no update; 2: ionic relaxation (conjugate gradient algorithm); 0: MD
  ISIF     = 2              # Stress calculation and Relaxation of DOFs: for 2: DoFs positions (Y), cell shape (N), cell volume (N)
  ISMEAR = 0                # Partial Occupancies for each Orbital -5 DOS, -2 from file, -1 Fermi Smear, 0 Gaussian Smear
  SIGMA    = 0.1            # Insulators/semiconductors=0.1;  metals=0.05
  NPAR = 16 		    # ~sqrt(# of cores), NCORE = # of cores/ NPAR

# MD parameters                
  ISYM = 0         	 # For ISYM=-1 | 0, the use of symmetry is switched off. strongly recommended for MD
  POTIM = 0.5      	 # timestep in fs
  TEBEG = 600 		 # temperature

# Don’t write WAVECAR or CHGCAR
LWAVE = .FALSE.
LCHARG = .FALSE.                    
