pu_isolated #Nuwan Dewapriya (2020-08-08)
1.0
       13.110000000       0.0000000000         0.0000000000
       0.0000000000        13.1100000000        0.0000000000
       0.0000000000        0.0000000000         52.620000000
C    H    N    O
25   34   2    5
Cartesian
5.3602	2.8446	14.5227
6.9803	11.2853	13.1495
8.7850	3.6434	13.2463
9.9112	4.4627	13.4152
9.1920	9.1589	12.9363
9.9182	8.0065	13.1184
7.7036	3.6751	14.1822
7.8647	4.4862	15.2781
8.9680	5.2909	15.4552
10.0163	5.3229	14.5027
9.0001	10.0697	13.9655
9.6535	9.8171	15.1807
10.3859	8.6394	15.3788
10.5026	7.6934	14.3466
2.5318	3.8091	12.3246
2.1979	5.3232	12.2537
4.3581	6.3651	12.5919
2.4014	3.2413	13.7642
3.1494	1.9097	14.0181
11.1213	6.3411	14.6139
6.1143	12.4998	13.4729
4.7376	8.2230	14.3038
5.5835	10.4946	17.0514
5.5241	8.7413	15.5128
5.2587	6.9024	13.7133
6.7209	2.3577	12.9764
8.3849	11.9366	14.4879
1.8773	3.2705	11.6939
3.5148	3.6579	11.9522
1.2075	5.5007	12.5891
2.2478	5.6916	11.1349
4.7949	5.5083	12.1752
6.3521	0.2187	12.6837
2.7686	1.1483	13.3798
8.7383	3.0469	12.4101
10.6671	4.4363	12.6809
4.3054	7.1625	11.7316
10.0178	7.2360	12.2369
8.7073	9.3199	11.8776
1.3796	3.1352	13.9953
2.8045	4.0274	14.5358
3.0397	1.5883	15.0210
5.2962	6.0808	14.5596
7.0367	4.5590	16.1043
9.0300	5.9215	16.2894
11.5979	6.2957	15.5510
11.9619	6.1205	13.8218
6.1895	12.9166	14.4333
4.7615	8.9624	13.5469
3.7274	8.1169	14.5952
5.4657	9.8768	17.8965
5.4501	7.9587	16.3889
6.2573	7.0199	13.3662
5.0154	12.1384	13.2938
5.0512	11.5133	17.2795
6.5465	8.8434	15.2843
6.6034	10.6977	16.8931
10.8220	8.4522	16.3201
9.5622	10.4765	15.9965
6.5570	2.8871	13.8697
8.1536	11.2531	13.8750
6.6025	10.4643	12.3584
5.0299	3.3263	15.5106
4.5375	2.0587	13.7117
3.0431	6.1196	13.0852
4.9458	9.9750	15.9015
